benchmark/results/graph__10-1000-0.10-02_9/graph__10-1000-0.10-02_9_Quinton_Benders_aux.lp
\ This file has been generated by DOcplex
\ ENCODING=ISO-8859-1
\Problem name: Quinton Benders_auxiliary_sub

Minimize
 obj: 0.001349539343 pi_nr_a0 + 0.000920708876 pi_nr_a1
      + 0.000856164384 pi_nr_a2 + 0.000914913083 pi_nr_a3
      + 0.001200472972 pi_nr_a4 + 0.001164135407 pi_nr_a5
      + 0.001171494324 pi_nr_a6 + 0.000850338503 pi_nr_a7
      + 0.000856169678 pi_nr_a8 + 0.001973113746 pi_nr_a9 + 2 pi_p_a1_a0
      + pi_p_a0_a2 + 2 pi_p_a5_a4 + pi_p_a5_a6 + pi_p_a3_a4
      + 1261.156636696815 pi_d_a0_a1_proc_1
      + 1217.274316787791 pi_d_a0_a1_proc_0
      + 1293.725683212209 pi_d_a1_a0_proc_1
      + 1249.843363303185 pi_d_a1_a0_proc_0 + 1.085575580597 pi_d_a0_a2_proc_0
      + 0.000000000000 pi_d_a2_a0_proc_0 - 0.854091048104 pi_d_a0_a3_proc_0
      + 1.939666628701 pi_d_a3_a0_proc_0 + 148.831176539259 pi_d_a0_a4_proc_1
      + 148.810530116202 pi_d_a0_a4_proc_0 + 2362.189469883798 pi_d_a4_a0_proc_1
      + 2362.168823460741 pi_d_a4_a0_proc_0
      + 2460.059664295917 pi_d_a0_a5_proc_1
      + 2460.059664295900 pi_d_a0_a5_proc_0 + 50.940335704100 pi_d_a5_a0_proc_1
      + 50.940335704083 pi_d_a5_a0_proc_0 + 1250.803974599188 pi_d_a0_a6_proc_1
      + 39.780547351170 pi_d_a0_a6_proc_0 + 2471.219452648830 pi_d_a6_a0_proc_1
      + 1260.196025400812 pi_d_a6_a0_proc_0
      + 2508.913025232353 pi_d_a0_a7_proc_1 - 0.924800065957 pi_d_a0_a7_proc_0
      + 2511.924800065957 pi_d_a7_a0_proc_1 + 2.086974767648 pi_d_a7_a0_proc_0
      + 322.673363909544 pi_d_a0_a8_proc_1 + 322.720340732487 pi_d_a0_a8_proc_0
      + 2188.279659267513 pi_d_a8_a0_proc_1
      + 2188.326636090456 pi_d_a8_a0_proc_0
      + 2500.973018169403 pi_d_a0_a9_proc_1
      + 1202.243597269130 pi_d_a0_a9_proc_0
      + 1308.756402730870 pi_d_a9_a0_proc_1 + 10.026981830597 pi_d_a9_a0_proc_0
      + 473.585907000539 pi_d_a1_a2_proc_0 + 1993.446197509840 pi_d_a2_a1_proc_0
      + 2428.313392758375 pi_d_a1_a3_proc_0 + 38.718711752004 pi_d_a3_a1_proc_0
      + 5.312384433091 pi_d_a1_a4_proc_1 + 2471.238266939816 pi_d_a1_a4_proc_0
      + 39.761733060184 pi_d_a4_a1_proc_1 + 2505.687615566908 pi_d_a4_a1_proc_0
      + 34.976326090128 pi_d_a1_a5_proc_1 + 2500.922855019891 pi_d_a1_a5_proc_0
      + 10.077144980109 pi_d_a5_a1_proc_1 + 2476.023673909872 pi_d_a5_a1_proc_0
      + 316.919673541578 pi_d_a1_a6_proc_1 + 1571.842775223342 pi_d_a1_a6_proc_0
      + 939.157224776658 pi_d_a6_a1_proc_1 + 2194.080326458421 pi_d_a6_a1_proc_0
      + 2274.770698768168 pi_d_a1_a7_proc_1
      + 2230.879402399640 pi_d_a1_a7_proc_0 + 280.120597600360 pi_d_a7_a1_proc_1
      + 236.229301231833 pi_d_a7_a1_proc_0 + 1.074325662541 pi_d_a1_a8_proc_1
      + 2467.067831415266 pi_d_a1_a8_proc_0 + 43.932168584734 pi_d_a8_a1_proc_1
      + 2509.925674337459 pi_d_a8_a1_proc_0 + 45.967884713335 pi_d_a1_a9_proc_1
      + 1213.184992742843 pi_d_a1_a9_proc_0
      + 1297.815007257157 pi_d_a9_a1_proc_1
      + 2465.032115286665 pi_d_a9_a1_proc_0 - 1.298755765052 pi_d_a2_a3_proc_0
      + 2.298755765052 pi_d_a3_a2_proc_0 + 414.001422137535 pi_d_a2_a4_proc_0
      + 2096.892355858811 pi_d_a4_a2_proc_0 + 787.512814915198 pi_d_a2_a5_proc_0
      + 1723.401609504187 pi_d_a5_a2_proc_0 + 42.494018485038 pi_d_a2_a6_proc_0
      + 1257.396978686346 pi_d_a6_a2_proc_0 - 1.923573529848 pi_d_a2_a7_proc_0
      + 3.000172650941 pi_d_a7_a2_proc_0 + 2050.077191608892 pi_d_a2_a8_proc_0
      + 460.884209633453 pi_d_a8_a2_proc_0 + 1044.548666238856 pi_d_a2_a9_proc_0
      + 167.636337280273 pi_d_a9_a2_proc_0 + 2510.893777996275 pi_d_a3_a4_proc_0
      + 0.000000000071 pi_d_a4_a3_proc_0 + 2505.260968104596 pi_d_a3_a5_proc_0
      + 5.653456314789 pi_d_a5_a3_proc_0 + 1256.732223579802 pi_d_a3_a6_proc_0
      + 43.158773591583 pi_d_a6_a3_proc_0 + 0.033659769637 pi_d_a3_a7_proc_0
      + 1.042939351456 pi_d_a7_a3_proc_0 + 2202.705438742524 pi_d_a3_a8_proc_0
      + 308.255962499821 pi_d_a8_a3_proc_0 + 1213.150347351962 pi_d_a3_a9_proc_0
      - 0.965343832833 pi_d_a9_a3_proc_0 - 0.096683970661 pi_d_a4_a5_proc_1
      + 2509.711518445070 pi_d_a4_a5_proc_0 + 1.288481554930 pi_d_a5_a4_proc_1
      + 2511.096683970661 pi_d_a5_a4_proc_0 + 314.446035100730 pi_d_a4_a6_proc_1
      + 1613.230810268461 pi_d_a4_a6_proc_0 + 897.769189731539 pi_d_a6_a4_proc_1
      + 2196.553964899270 pi_d_a6_a4_proc_0
      + 2346.324192714676 pi_d_a4_a7_proc_1
      + 2346.294569832115 pi_d_a4_a7_proc_0 + 164.705430167884 pi_d_a7_a4_proc_1
      + 164.675807285324 pi_d_a7_a4_proc_0 + 0.144368022631 pi_d_a4_a8_proc_1
      + 2509.999547261322 pi_d_a4_a8_proc_0 + 1.000452738678 pi_d_a8_a4_proc_1
      + 2510.855631977369 pi_d_a8_a4_proc_0
      + 1258.236566374442 pi_d_a4_a9_proc_1
      + 2469.315347889918 pi_d_a4_a9_proc_0 + 41.684652110082 pi_d_a9_a4_proc_1
      + 1252.763433625557 pi_d_a9_a4_proc_0
      + 1212.117680072816 pi_d_a5_a6_proc_1
      + 2510.923101663585 pi_d_a5_a6_proc_0 + 0.076898336415 pi_d_a6_a5_proc_1
      + 1298.882319927184 pi_d_a6_a5_proc_0
      + 1255.265873432178 pi_d_a5_a7_proc_1
      + 1255.256896972656 pi_d_a5_a7_proc_0
      + 1255.743103027344 pi_d_a7_a5_proc_1
      + 1255.734126567822 pi_d_a7_a5_proc_0 + 1.124074666001 pi_d_a5_a8_proc_1
      + 2510.999900327732 pi_d_a5_a8_proc_0 + 0.000099672268 pi_d_a8_a5_proc_1
      + 2509.875925333999 pi_d_a8_a5_proc_0 + 3.913576915859 pi_d_a5_a9_proc_1
      + 1215.013004854373 pi_d_a5_a9_proc_0
      + 1295.986995145627 pi_d_a9_a5_proc_1
      + 2507.086423084141 pi_d_a9_a5_proc_0
      + 1214.189080953608 pi_d_a6_a7_proc_1 + 3.156677246086 pi_d_a6_a7_proc_0
      + 2507.843322753914 pi_d_a7_a6_proc_1
      + 1296.810919046392 pi_d_a7_a6_proc_0 + 6.055993288770 pi_d_a6_a8_proc_1
      + 1304.908391702500 pi_d_a6_a8_proc_0
      + 1206.091608297500 pi_d_a8_a6_proc_1
      + 2504.944006711230 pi_d_a8_a6_proc_0
      + 2423.085408680328 pi_d_a6_a9_proc_1
      + 2423.161409370842 pi_d_a6_a9_proc_0 + 87.838590629158 pi_d_a9_a6_proc_1
      + 87.914591319672 pi_d_a9_a6_proc_0 + 5.902402449465 pi_d_a7_a8_proc_1
      + 5.940402812903 pi_d_a7_a8_proc_0 + 2505.059597187097 pi_d_a8_a7_proc_1
      + 2505.097597550535 pi_d_a8_a7_proc_0
      + 1301.098210684942 pi_d_a7_a9_proc_1 + 2.359813325164 pi_d_a7_a9_proc_0
      + 2508.640186674836 pi_d_a9_a7_proc_1
      + 1209.901789315058 pi_d_a9_a7_proc_0 + 2.289735063904 pi_d_a8_a9_proc_1
      + 1213.436139825378 pi_d_a8_a9_proc_0
      + 1297.563860174622 pi_d_a9_a8_proc_1
      + 2508.710264936096 pi_d_a9_a8_proc_0 + 0.999965906143 pi_y2_a0_proc_0
      + 0.000034093857 pi_y2_a0_proc_1 + 0.017517089837 pi_y2_a1_proc_0
      + 0.982482910163 pi_y2_a1_proc_1 + pi_y2_a2_proc_0 + pi_y2_a3_proc_0
      + 0.000042319523 pi_y2_a4_proc_0 + 0.999957680477 pi_y2_a4_proc_1
      + 0.000034093857 pi_y2_a5_proc_0 + 0.999965906143 pi_y2_a5_proc_1
      + 0.482513546944 pi_y2_a6_proc_0 + 0.517486453056 pi_y2_a6_proc_1
      + 0.999969482422 pi_y2_a7_proc_0 + 0.000030517578 pi_y2_a7_proc_1
      + 0.000015377991 pi_y2_a8_proc_0 + 0.999984622009 pi_y2_a8_proc_1
      + 0.517456173897 pi_y2_a9_proc_0 + 0.482543826103 pi_y2_a9_proc_1
Subject To
 c1: 0.001349527665 pi_nr_a0 + 0.000909090909 pi_nr_a1 + 0.000856164384 pi_nr_a2
     + 0.000914913083 pi_nr_a3 + 0.001200480192 pi_nr_a4
     + 0.001164144354 pi_nr_a5 + 0.001335113485 pi_nr_a6
     + 0.000850340136 pi_nr_a7 + 0.000856164384 pi_nr_a8
     + 0.001890359168 pi_nr_a9 + 2 pi_p_a1_a0 + pi_p_a0_a2 + 2 pi_p_a5_a4
     + pi_p_a5_a6 + pi_p_a3_a4 + 2434 pi_d_a0_a1_proc_1 + 2434 pi_d_a0_a1_proc_0
     + 77 pi_d_a1_a0_proc_1 + 77 pi_d_a1_a0_proc_0 + pi_d_a0_a2_proc_0
     - pi_d_a0_a3_proc_0 + 2 pi_d_a3_a0_proc_0 + 2511 pi_d_a4_a0_proc_1
     + 2511 pi_d_a4_a0_proc_0 + 2509 pi_d_a0_a5_proc_1 + 2509 pi_d_a0_a5_proc_0
     + 2 pi_d_a5_a0_proc_1 + 2 pi_d_a5_a0_proc_0 - pi_d_a0_a6_proc_1
     - pi_d_a0_a6_proc_0 + 2512 pi_d_a6_a0_proc_1 + 2512 pi_d_a6_a0_proc_0
     + 2509 pi_d_a0_a7_proc_1 - pi_d_a0_a7_proc_0 + 2512 pi_d_a7_a0_proc_1
     + 2 pi_d_a7_a0_proc_0 + 2511 pi_d_a8_a0_proc_1 + 2511 pi_d_a8_a0_proc_0
     + 2511 pi_d_a0_a9_proc_1 + pi_d_a0_a9_proc_0 + 2510 pi_d_a9_a0_proc_1
     + 2 pi_d_a1_a2_proc_0 + 2509 pi_d_a2_a1_proc_0 + 2510 pi_d_a1_a3_proc_0
     + pi_d_a3_a1_proc_0 + pi_d_a1_a4_proc_1 + 2511 pi_d_a1_a4_proc_0
     + 2510 pi_d_a4_a1_proc_0 + 2510 pi_d_a1_a5_proc_0 + pi_d_a5_a1_proc_1
     + 2511 pi_d_a5_a1_proc_0 + pi_d_a1_a6_proc_1 + 2511 pi_d_a1_a6_proc_0
     + 2510 pi_d_a6_a1_proc_0 + 2510 pi_d_a1_a7_proc_1 + 2510 pi_d_a1_a7_proc_0
     + pi_d_a7_a1_proc_1 + pi_d_a7_a1_proc_0 + pi_d_a1_a8_proc_1
     + 2511 pi_d_a1_a8_proc_0 + 2510 pi_d_a8_a1_proc_0 + 2 pi_d_a1_a9_proc_1
     + 2 pi_d_a1_a9_proc_0 + 2509 pi_d_a9_a1_proc_1 + 2509 pi_d_a9_a1_proc_0
     - pi_d_a2_a3_proc_0 + 2 pi_d_a3_a2_proc_0 - pi_d_a2_a4_proc_0
     + 2512 pi_d_a4_a2_proc_0 + pi_d_a2_a5_proc_0 + 2510 pi_d_a5_a2_proc_0
     - pi_d_a2_a6_proc_0 + 2512 pi_d_a6_a2_proc_0 - 2 pi_d_a2_a7_proc_0
     + 3 pi_d_a7_a2_proc_0 + 2509 pi_d_a2_a8_proc_0 + 2 pi_d_a8_a2_proc_0
     + pi_d_a9_a2_proc_0 + 2511 pi_d_a3_a4_proc_0 + 2510 pi_d_a3_a5_proc_0
     + pi_d_a5_a3_proc_0 + 2510 pi_d_a3_a6_proc_0 + pi_d_a6_a3_proc_0
     + pi_d_a7_a3_proc_0 + 2510 pi_d_a3_a8_proc_0 + pi_d_a8_a3_proc_0
     + 2 pi_d_a3_a9_proc_0 - pi_d_a9_a3_proc_0 + 2510 pi_d_a4_a5_proc_0
     + pi_d_a5_a4_proc_1 + 2511 pi_d_a5_a4_proc_0 + 2510 pi_d_a4_a6_proc_0
     + pi_d_a6_a4_proc_1 + 2511 pi_d_a6_a4_proc_0 + 2508 pi_d_a4_a7_proc_1
     + 2508 pi_d_a4_a7_proc_0 + 3 pi_d_a7_a4_proc_1 + 3 pi_d_a7_a4_proc_0
     + 2510 pi_d_a4_a8_proc_0 + pi_d_a8_a4_proc_1 + 2511 pi_d_a8_a4_proc_0
     + 2511 pi_d_a4_a9_proc_1 + 2511 pi_d_a4_a9_proc_0 + pi_d_a5_a6_proc_1
     + 2511 pi_d_a5_a6_proc_0 + 2510 pi_d_a6_a5_proc_0 + pi_d_a5_a7_proc_1
     + pi_d_a5_a7_proc_0 + 2510 pi_d_a7_a5_proc_1 + 2510 pi_d_a7_a5_proc_0
     + pi_d_a5_a8_proc_1 + 2511 pi_d_a5_a8_proc_0 + 2510 pi_d_a8_a5_proc_0
     + 3 pi_d_a5_a9_proc_1 + 3 pi_d_a5_a9_proc_0 + 2508 pi_d_a9_a5_proc_1
     + 2508 pi_d_a9_a5_proc_0 + 2511 pi_d_a7_a6_proc_1 + 2511 pi_d_a7_a6_proc_0
     + pi_d_a6_a8_proc_1 + 2511 pi_d_a6_a8_proc_0 + 2510 pi_d_a8_a6_proc_0
     + 2512 pi_d_a6_a9_proc_1 + 2512 pi_d_a6_a9_proc_0 - pi_d_a9_a6_proc_1
     - pi_d_a9_a6_proc_0 + pi_d_a7_a8_proc_1 + pi_d_a7_a8_proc_0
     + 2510 pi_d_a8_a7_proc_1 + 2510 pi_d_a8_a7_proc_0 + 2512 pi_d_a7_a9_proc_1
     + 2 pi_d_a7_a9_proc_0 + 2509 pi_d_a9_a7_proc_1 - pi_d_a9_a7_proc_0
     + 2 pi_d_a8_a9_proc_1 + 2 pi_d_a8_a9_proc_0 + 2509 pi_d_a9_a8_proc_1
     + 2509 pi_d_a9_a8_proc_0 + pi_y2_a0_proc_0 + pi_y2_a1_proc_1
     + pi_y2_a2_proc_0 + pi_y2_a3_proc_0 + pi_y2_a4_proc_1 + pi_y2_a5_proc_1
     + pi_y2_a6_proc_1 + pi_y2_a7_proc_0 + pi_y2_a8_proc_1 + pi_y2_a9_proc_0 = 
     0.000167982530
 c2: pi_nr_a0 + pi_nr_a1 + pi_nr_a2 + pi_nr_a3 + pi_nr_a4 + pi_nr_a5 + pi_nr_a6
     + pi_nr_a7 + pi_nr_a8 + pi_nr_a9 - pi_y1_a0 - pi_y1_a1 - pi_y1_a2
     - pi_y1_a3 - pi_y1_a4 - pi_y1_a5 - pi_y1_a6 - pi_y1_a7 - pi_y1_a8
     - pi_y1_a9 >= 1
 c3: - pi_p_a1_a0 + pi_p_a0_a2 - pi_p_a2_a0 - pi_p_a9_a0 + pi_d_a0_a1_proc_1
     + pi_d_a0_a1_proc_0 - pi_d_a1_a0_proc_1 - pi_d_a1_a0_proc_0
     + pi_d_a0_a2_proc_0 - pi_d_a2_a0_proc_0 + pi_d_a0_a3_proc_0
     - pi_d_a3_a0_proc_0 + pi_d_a0_a4_proc_1 + pi_d_a0_a4_proc_0
     - pi_d_a4_a0_proc_1 - pi_d_a4_a0_proc_0 + pi_d_a0_a5_proc_1
     + pi_d_a0_a5_proc_0 - pi_d_a5_a0_proc_1 - pi_d_a5_a0_proc_0
     + pi_d_a0_a6_proc_1 + pi_d_a0_a6_proc_0 - pi_d_a6_a0_proc_1
     - pi_d_a6_a0_proc_0 + pi_d_a0_a7_proc_1 + pi_d_a0_a7_proc_0
     - pi_d_a7_a0_proc_1 - pi_d_a7_a0_proc_0 + pi_d_a0_a8_proc_1
     + pi_d_a0_a8_proc_0 - pi_d_a8_a0_proc_1 - pi_d_a8_a0_proc_0
     + pi_d_a0_a9_proc_1 + pi_d_a0_a9_proc_0 - pi_d_a9_a0_proc_1
     - pi_d_a9_a0_proc_0 >= 0
 c4: 741 pi_p_a0_a2 + 741 pi_d_a0_a1_proc_0 + 741 pi_d_a0_a2_proc_0
     + 741 pi_d_a0_a3_proc_0 + 741 pi_d_a0_a4_proc_0 + 741 pi_d_a0_a5_proc_0
     + 741 pi_d_a0_a6_proc_0 + 741 pi_d_a0_a7_proc_0 + 741 pi_d_a0_a8_proc_0
     + 741 pi_d_a0_a9_proc_0 + pi_y1_a0 + pi_y2_a0_proc_0 >= 0
 c5: 591 pi_p_a0_a2 + 591 pi_d_a0_a1_proc_1 + 591 pi_d_a0_a4_proc_1
     + 591 pi_d_a0_a5_proc_1 + 591 pi_d_a0_a6_proc_1 + 591 pi_d_a0_a7_proc_1
     + 591 pi_d_a0_a8_proc_1 + 591 pi_d_a0_a9_proc_1 + pi_y1_a0
     + pi_y2_a0_proc_1 >= 0
 c6: pi_p_a1_a0 - pi_p_a3_a1 - pi_p_a6_a1 - pi_d_a0_a1_proc_1
     - pi_d_a0_a1_proc_0 + pi_d_a1_a0_proc_1 + pi_d_a1_a0_proc_0
     + pi_d_a1_a2_proc_0 - pi_d_a2_a1_proc_0 + pi_d_a1_a3_proc_0
     - pi_d_a3_a1_proc_0 + pi_d_a1_a4_proc_1 + pi_d_a1_a4_proc_0
     - pi_d_a4_a1_proc_1 - pi_d_a4_a1_proc_0 + pi_d_a1_a5_proc_1
     + pi_d_a1_a5_proc_0 - pi_d_a5_a1_proc_1 - pi_d_a5_a1_proc_0
     + pi_d_a1_a6_proc_1 + pi_d_a1_a6_proc_0 - pi_d_a6_a1_proc_1
     - pi_d_a6_a1_proc_0 + pi_d_a1_a7_proc_1 + pi_d_a1_a7_proc_0
     - pi_d_a7_a1_proc_1 - pi_d_a7_a1_proc_0 + pi_d_a1_a8_proc_1
     + pi_d_a1_a8_proc_0 - pi_d_a8_a1_proc_1 - pi_d_a8_a1_proc_0
     + pi_d_a1_a9_proc_1 + pi_d_a1_a9_proc_0 - pi_d_a9_a1_proc_1
     - pi_d_a9_a1_proc_0 >= 0
 c7: 636 pi_p_a1_a0 + 636 pi_d_a1_a0_proc_0 + 636 pi_d_a1_a2_proc_0
     + 636 pi_d_a1_a3_proc_0 + 636 pi_d_a1_a4_proc_0 + 636 pi_d_a1_a5_proc_0
     + 636 pi_d_a1_a6_proc_0 + 636 pi_d_a1_a7_proc_0 + 636 pi_d_a1_a8_proc_0
     + 636 pi_d_a1_a9_proc_0 + pi_y1_a1 + pi_y2_a1_proc_0 >= 0
 c8: 1100 pi_p_a1_a0 + 1100 pi_d_a1_a0_proc_1 + 1100 pi_d_a1_a4_proc_1
     + 1100 pi_d_a1_a5_proc_1 + 1100 pi_d_a1_a6_proc_1 + 1100 pi_d_a1_a7_proc_1
     + 1100 pi_d_a1_a8_proc_1 + 1100 pi_d_a1_a9_proc_1 + pi_y1_a1
     + pi_y2_a1_proc_1 >= 0
 c9: - pi_p_a0_a2 + pi_p_a2_a9 + pi_p_a2_a0 + pi_p_a2_a8 - pi_d_a0_a2_proc_0
     + pi_d_a2_a0_proc_0 - pi_d_a1_a2_proc_0 + pi_d_a2_a1_proc_0
     + pi_d_a2_a3_proc_0 - pi_d_a3_a2_proc_0 + pi_d_a2_a4_proc_0
     - pi_d_a4_a2_proc_0 + pi_d_a2_a5_proc_0 - pi_d_a5_a2_proc_0
     + pi_d_a2_a6_proc_0 - pi_d_a6_a2_proc_0 + pi_d_a2_a7_proc_0
     - pi_d_a7_a2_proc_0 + pi_d_a2_a8_proc_0 - pi_d_a8_a2_proc_0
     + pi_d_a2_a9_proc_0 - pi_d_a9_a2_proc_0 >= 0
 c10: 1168 pi_p_a2_a9 + 1168 pi_p_a2_a0 + 1168 pi_p_a2_a8
      + 1168 pi_d_a2_a0_proc_0 + 1168 pi_d_a2_a1_proc_0 + 1168 pi_d_a2_a3_proc_0
      + 1168 pi_d_a2_a4_proc_0 + 1168 pi_d_a2_a5_proc_0 + 1168 pi_d_a2_a6_proc_0
      + 1168 pi_d_a2_a7_proc_0 + 1168 pi_d_a2_a8_proc_0 + 1168 pi_d_a2_a9_proc_0
      + pi_y1_a2 + pi_y2_a2_proc_0 >= 0
 c11: pi_p_a3_a1 - pi_p_a4_a3 + pi_p_a3_a7 + pi_p_a3_a4 - pi_d_a0_a3_proc_0
      + pi_d_a3_a0_proc_0 - pi_d_a1_a3_proc_0 + pi_d_a3_a1_proc_0
      - pi_d_a2_a3_proc_0 + pi_d_a3_a2_proc_0 + pi_d_a3_a4_proc_0
      - pi_d_a4_a3_proc_0 + pi_d_a3_a5_proc_0 - pi_d_a5_a3_proc_0
      + pi_d_a3_a6_proc_0 - pi_d_a6_a3_proc_0 + pi_d_a3_a7_proc_0
      - pi_d_a7_a3_proc_0 + pi_d_a3_a8_proc_0 - pi_d_a8_a3_proc_0
      + pi_d_a3_a9_proc_0 - pi_d_a9_a3_proc_0 >= 0
 c12: 1093 pi_p_a3_a1 + 1093 pi_p_a3_a7 + 1093 pi_p_a3_a4
      + 1093 pi_d_a3_a0_proc_0 + 1093 pi_d_a3_a1_proc_0 + 1093 pi_d_a3_a2_proc_0
      + 1093 pi_d_a3_a4_proc_0 + 1093 pi_d_a3_a5_proc_0 + 1093 pi_d_a3_a6_proc_0
      + 1093 pi_d_a3_a7_proc_0 + 1093 pi_d_a3_a8_proc_0 + 1093 pi_d_a3_a9_proc_0
      + pi_y1_a3 + pi_y2_a3_proc_0 >= 0
 c13: pi_p_a4_a3 - pi_p_a5_a4 + pi_p_a4_a8 - pi_p_a9_a4 - pi_p_a3_a4
      - pi_d_a0_a4_proc_1 - pi_d_a0_a4_proc_0 + pi_d_a4_a0_proc_1
      + pi_d_a4_a0_proc_0 - pi_d_a1_a4_proc_1 - pi_d_a1_a4_proc_0
      + pi_d_a4_a1_proc_1 + pi_d_a4_a1_proc_0 - pi_d_a2_a4_proc_0
      + pi_d_a4_a2_proc_0 - pi_d_a3_a4_proc_0 + pi_d_a4_a3_proc_0
      + pi_d_a4_a5_proc_1 + pi_d_a4_a5_proc_0 - pi_d_a5_a4_proc_1
      - pi_d_a5_a4_proc_0 + pi_d_a4_a6_proc_1 + pi_d_a4_a6_proc_0
      - pi_d_a6_a4_proc_1 - pi_d_a6_a4_proc_0 + pi_d_a4_a7_proc_1
      + pi_d_a4_a7_proc_0 - pi_d_a7_a4_proc_1 - pi_d_a7_a4_proc_0
      + pi_d_a4_a8_proc_1 + pi_d_a4_a8_proc_0 - pi_d_a8_a4_proc_1
      - pi_d_a8_a4_proc_0 + pi_d_a4_a9_proc_1 + pi_d_a4_a9_proc_0
      - pi_d_a9_a4_proc_1 - pi_d_a9_a4_proc_0 >= 0
 c14: 971 pi_p_a4_a3 + 971 pi_p_a4_a8 + 971 pi_d_a4_a0_proc_0
      + 971 pi_d_a4_a1_proc_0 + 971 pi_d_a4_a2_proc_0 + 971 pi_d_a4_a3_proc_0
      + 971 pi_d_a4_a5_proc_0 + 971 pi_d_a4_a6_proc_0 + 971 pi_d_a4_a7_proc_0
      + 971 pi_d_a4_a8_proc_0 + 971 pi_d_a4_a9_proc_0 + pi_y1_a4
      + pi_y2_a4_proc_0 >= 0
 c15: 833 pi_p_a4_a3 + 833 pi_p_a4_a8 + 833 pi_d_a4_a0_proc_1
      + 833 pi_d_a4_a1_proc_1 + 833 pi_d_a4_a5_proc_1 + 833 pi_d_a4_a6_proc_1
      + 833 pi_d_a4_a7_proc_1 + 833 pi_d_a4_a8_proc_1 + 833 pi_d_a4_a9_proc_1
      + pi_y1_a4 + pi_y2_a4_proc_1 >= 0
 c16: pi_p_a5_a4 + pi_p_a5_a6 - pi_p_a7_a5 - pi_d_a0_a5_proc_1
      - pi_d_a0_a5_proc_0 + pi_d_a5_a0_proc_1 + pi_d_a5_a0_proc_0
      - pi_d_a1_a5_proc_1 - pi_d_a1_a5_proc_0 + pi_d_a5_a1_proc_1
      + pi_d_a5_a1_proc_0 - pi_d_a2_a5_proc_0 + pi_d_a5_a2_proc_0
      - pi_d_a3_a5_proc_0 + pi_d_a5_a3_proc_0 - pi_d_a4_a5_proc_1
      - pi_d_a4_a5_proc_0 + pi_d_a5_a4_proc_1 + pi_d_a5_a4_proc_0
      + pi_d_a5_a6_proc_1 + pi_d_a5_a6_proc_0 - pi_d_a6_a5_proc_1
      - pi_d_a6_a5_proc_0 + pi_d_a5_a7_proc_1 + pi_d_a5_a7_proc_0
      - pi_d_a7_a5_proc_1 - pi_d_a7_a5_proc_0 + pi_d_a5_a8_proc_1
      + pi_d_a5_a8_proc_0 - pi_d_a8_a5_proc_1 - pi_d_a8_a5_proc_0
      + pi_d_a5_a9_proc_1 + pi_d_a5_a9_proc_0 - pi_d_a9_a5_proc_1
      - pi_d_a9_a5_proc_0 >= 0
 c17: 1109 pi_p_a5_a4 + 1109 pi_p_a5_a6 + 1109 pi_d_a5_a0_proc_0
      + 1109 pi_d_a5_a1_proc_0 + 1109 pi_d_a5_a2_proc_0 + 1109 pi_d_a5_a3_proc_0
      + 1109 pi_d_a5_a4_proc_0 + 1109 pi_d_a5_a6_proc_0 + 1109 pi_d_a5_a7_proc_0
      + 1109 pi_d_a5_a8_proc_0 + 1109 pi_d_a5_a9_proc_0 + pi_y1_a5
      + pi_y2_a5_proc_0 >= 0
 c18: 859 pi_p_a5_a4 + 859 pi_p_a5_a6 + 859 pi_d_a5_a0_proc_1
      + 859 pi_d_a5_a1_proc_1 + 859 pi_d_a5_a4_proc_1 + 859 pi_d_a5_a6_proc_1
      + 859 pi_d_a5_a7_proc_1 + 859 pi_d_a5_a8_proc_1 + 859 pi_d_a5_a9_proc_1
      + pi_y1_a5 + pi_y2_a5_proc_1 >= 0
 c19: - pi_p_a5_a6 - pi_p_a8_a6 + pi_p_a6_a7 + pi_p_a6_a1 - pi_d_a0_a6_proc_1
      - pi_d_a0_a6_proc_0 + pi_d_a6_a0_proc_1 + pi_d_a6_a0_proc_0
      - pi_d_a1_a6_proc_1 - pi_d_a1_a6_proc_0 + pi_d_a6_a1_proc_1
      + pi_d_a6_a1_proc_0 - pi_d_a2_a6_proc_0 + pi_d_a6_a2_proc_0
      - pi_d_a3_a6_proc_0 + pi_d_a6_a3_proc_0 - pi_d_a4_a6_proc_1
      - pi_d_a4_a6_proc_0 + pi_d_a6_a4_proc_1 + pi_d_a6_a4_proc_0
      - pi_d_a5_a6_proc_1 - pi_d_a5_a6_proc_0 + pi_d_a6_a5_proc_1
      + pi_d_a6_a5_proc_0 + pi_d_a6_a7_proc_1 + pi_d_a6_a7_proc_0
      - pi_d_a7_a6_proc_1 - pi_d_a7_a6_proc_0 + pi_d_a6_a8_proc_1
      + pi_d_a6_a8_proc_0 - pi_d_a8_a6_proc_1 - pi_d_a8_a6_proc_0
      + pi_d_a6_a9_proc_1 + pi_d_a6_a9_proc_0 - pi_d_a9_a6_proc_1
      - pi_d_a9_a6_proc_0 >= 0
 c20: 1004 pi_p_a6_a7 + 1004 pi_p_a6_a1 + 1004 pi_d_a6_a0_proc_0
      + 1004 pi_d_a6_a1_proc_0 + 1004 pi_d_a6_a2_proc_0 + 1004 pi_d_a6_a3_proc_0
      + 1004 pi_d_a6_a4_proc_0 + 1004 pi_d_a6_a5_proc_0 + 1004 pi_d_a6_a7_proc_0
      + 1004 pi_d_a6_a8_proc_0 + 1004 pi_d_a6_a9_proc_0 + pi_y1_a6
      + pi_y2_a6_proc_0 >= 0
 c21: 749 pi_p_a6_a7 + 749 pi_p_a6_a1 + 749 pi_d_a6_a0_proc_1
      + 749 pi_d_a6_a1_proc_1 + 749 pi_d_a6_a4_proc_1 + 749 pi_d_a6_a5_proc_1
      + 749 pi_d_a6_a7_proc_1 + 749 pi_d_a6_a8_proc_1 + 749 pi_d_a6_a9_proc_1
      + pi_y1_a6 + pi_y2_a6_proc_1 >= 0
 c22: - pi_p_a3_a7 - pi_p_a6_a7 + pi_p_a7_a5 - pi_d_a0_a7_proc_1
      - pi_d_a0_a7_proc_0 + pi_d_a7_a0_proc_1 + pi_d_a7_a0_proc_0
      - pi_d_a1_a7_proc_1 - pi_d_a1_a7_proc_0 + pi_d_a7_a1_proc_1
      + pi_d_a7_a1_proc_0 - pi_d_a2_a7_proc_0 + pi_d_a7_a2_proc_0
      - pi_d_a3_a7_proc_0 + pi_d_a7_a3_proc_0 - pi_d_a4_a7_proc_1
      - pi_d_a4_a7_proc_0 + pi_d_a7_a4_proc_1 + pi_d_a7_a4_proc_0
      - pi_d_a5_a7_proc_1 - pi_d_a5_a7_proc_0 + pi_d_a7_a5_proc_1
      + pi_d_a7_a5_proc_0 - pi_d_a6_a7_proc_1 - pi_d_a6_a7_proc_0
      + pi_d_a7_a6_proc_1 + pi_d_a7_a6_proc_0 + pi_d_a7_a8_proc_1
      + pi_d_a7_a8_proc_0 - pi_d_a8_a7_proc_1 - pi_d_a8_a7_proc_0
      + pi_d_a7_a9_proc_1 + pi_d_a7_a9_proc_0 - pi_d_a9_a7_proc_1
      - pi_d_a9_a7_proc_0 >= 0
 c23: 1176 pi_p_a7_a5 + 1176 pi_d_a7_a0_proc_0 + 1176 pi_d_a7_a1_proc_0
      + 1176 pi_d_a7_a2_proc_0 + 1176 pi_d_a7_a3_proc_0 + 1176 pi_d_a7_a4_proc_0
      + 1176 pi_d_a7_a5_proc_0 + 1176 pi_d_a7_a6_proc_0 + 1176 pi_d_a7_a8_proc_0
      + 1176 pi_d_a7_a9_proc_0 + pi_y1_a7 + pi_y2_a7_proc_0 >= 0
 c24: 1255 pi_p_a7_a5 + 1255 pi_d_a7_a0_proc_1 + 1255 pi_d_a7_a1_proc_1
      + 1255 pi_d_a7_a4_proc_1 + 1255 pi_d_a7_a5_proc_1 + 1255 pi_d_a7_a6_proc_1
      + 1255 pi_d_a7_a8_proc_1 + 1255 pi_d_a7_a9_proc_1 + pi_y1_a7
      + pi_y2_a7_proc_1 >= 0
 c25: - pi_p_a4_a8 + pi_p_a8_a6 - pi_p_a2_a8 - pi_d_a0_a8_proc_1
      - pi_d_a0_a8_proc_0 + pi_d_a8_a0_proc_1 + pi_d_a8_a0_proc_0
      - pi_d_a1_a8_proc_1 - pi_d_a1_a8_proc_0 + pi_d_a8_a1_proc_1
      + pi_d_a8_a1_proc_0 - pi_d_a2_a8_proc_0 + pi_d_a8_a2_proc_0
      - pi_d_a3_a8_proc_0 + pi_d_a8_a3_proc_0 - pi_d_a4_a8_proc_1
      - pi_d_a4_a8_proc_0 + pi_d_a8_a4_proc_1 + pi_d_a8_a4_proc_0
      - pi_d_a5_a8_proc_1 - pi_d_a5_a8_proc_0 + pi_d_a8_a5_proc_1
      + pi_d_a8_a5_proc_0 - pi_d_a6_a8_proc_1 - pi_d_a6_a8_proc_0
      + pi_d_a8_a6_proc_1 + pi_d_a8_a6_proc_0 - pi_d_a7_a8_proc_1
      - pi_d_a7_a8_proc_0 + pi_d_a8_a7_proc_1 + pi_d_a8_a7_proc_0
      + pi_d_a8_a9_proc_1 + pi_d_a8_a9_proc_0 - pi_d_a9_a8_proc_1
      - pi_d_a9_a8_proc_0 >= 0
 c26: 833 pi_p_a8_a6 + 833 pi_d_a8_a0_proc_0 + 833 pi_d_a8_a1_proc_0
      + 833 pi_d_a8_a2_proc_0 + 833 pi_d_a8_a3_proc_0 + 833 pi_d_a8_a4_proc_0
      + 833 pi_d_a8_a5_proc_0 + 833 pi_d_a8_a6_proc_0 + 833 pi_d_a8_a7_proc_0
      + 833 pi_d_a8_a9_proc_0 + pi_y1_a8 + pi_y2_a8_proc_0 >= 0
 c27: 1168 pi_p_a8_a6 + 1168 pi_d_a8_a0_proc_1 + 1168 pi_d_a8_a1_proc_1
      + 1168 pi_d_a8_a4_proc_1 + 1168 pi_d_a8_a5_proc_1 + 1168 pi_d_a8_a6_proc_1
      + 1168 pi_d_a8_a7_proc_1 + 1168 pi_d_a8_a9_proc_1 + pi_y1_a8
      + pi_y2_a8_proc_1 >= 0
 c28: - pi_p_a2_a9 + pi_p_a9_a4 + pi_p_a9_a0 - pi_d_a0_a9_proc_1
      - pi_d_a0_a9_proc_0 + pi_d_a9_a0_proc_1 + pi_d_a9_a0_proc_0
      - pi_d_a1_a9_proc_1 - pi_d_a1_a9_proc_0 + pi_d_a9_a1_proc_1
      + pi_d_a9_a1_proc_0 - pi_d_a2_a9_proc_0 + pi_d_a9_a2_proc_0
      - pi_d_a3_a9_proc_0 + pi_d_a9_a3_proc_0 - pi_d_a4_a9_proc_1
      - pi_d_a4_a9_proc_0 + pi_d_a9_a4_proc_1 + pi_d_a9_a4_proc_0
      - pi_d_a5_a9_proc_1 - pi_d_a5_a9_proc_0 + pi_d_a9_a5_proc_1
      + pi_d_a9_a5_proc_0 - pi_d_a6_a9_proc_1 - pi_d_a6_a9_proc_0
      + pi_d_a9_a6_proc_1 + pi_d_a9_a6_proc_0 - pi_d_a7_a9_proc_1
      - pi_d_a7_a9_proc_0 + pi_d_a9_a7_proc_1 + pi_d_a9_a7_proc_0
      - pi_d_a8_a9_proc_1 - pi_d_a8_a9_proc_0 + pi_d_a9_a8_proc_1
      + pi_d_a9_a8_proc_0 >= 0
 c29: 529 pi_p_a9_a4 + 529 pi_p_a9_a0 + 529 pi_d_a9_a0_proc_0
      + 529 pi_d_a9_a1_proc_0 + 529 pi_d_a9_a2_proc_0 + 529 pi_d_a9_a3_proc_0
      + 529 pi_d_a9_a4_proc_0 + 529 pi_d_a9_a5_proc_0 + 529 pi_d_a9_a6_proc_0
      + 529 pi_d_a9_a7_proc_0 + 529 pi_d_a9_a8_proc_0 + pi_y1_a9
      + pi_y2_a9_proc_0 >= 0
 c30: 485 pi_p_a9_a4 + 485 pi_p_a9_a0 + 485 pi_d_a9_a0_proc_1
      + 485 pi_d_a9_a1_proc_1 + 485 pi_d_a9_a4_proc_1 + 485 pi_d_a9_a5_proc_1
      + 485 pi_d_a9_a6_proc_1 + 485 pi_d_a9_a7_proc_1 + 485 pi_d_a9_a8_proc_1
      + pi_y1_a9 + pi_y2_a9_proc_1 >= 0

Bounds
       pi_y1_a0 Free
       pi_y1_a1 Free
       pi_y1_a2 Free
       pi_y1_a3 Free
       pi_y1_a4 Free
       pi_y1_a5 Free
       pi_y1_a6 Free
       pi_y1_a7 Free
       pi_y1_a8 Free
       pi_y1_a9 Free
End
