benchmark/results/graph__10-1000-0.10-02_9/graph__10-1000-0.10-02_9_Quinton_Benders_aux.txt
solution for: Quinton Benders_auxiliary_sub
objective: 0.0794533
status: OPTIMAL_SOLUTION(2)
pi_p_a4_a8=0.000
pi_p_a8_a6=0.000
pi_p_a7_a5=0.000
pi_p_a6_a1=0.000
pi_d_a1_a2_proc_0=0.000
pi_d_a2_a7_proc_0=0.000
pi_d_a5_a4_proc_1=0.000
pi_y1_a2=-0.196
pi_y1_a4=-0.140
pi_y1_a5=-0.144
pi_y1_a6=-0.126
pi_y1_a7=-0.198
pi_y1_a8=-0.196
pi_y2_a5_proc_0=0.144
pi_y2_a8_proc_0=0.056
